DIMENSION: 6
NODE_COORD_SECTION
1 -118.7679907887 747.8527607362
2 1579.3248945148 297.0088924818
3 1375.4601226994 -870.8860759494
4 26.1656228253 -74.7709224191
5 46.4857341684 183.9340256567
6 -432.0217096336 -164.4727000748
EOF